certificates/rado_a5_c233_N46.cnf
c Rad2 upper bound instance: x1 + 5*x2 - x3 = 233, interval [1,46]
p cnf 46 414
1 4 46 0
-1 -4 -46 0
2 5 46 0
-2 -5 -46 0
3 6 46 0
-3 -6 -46 0
4 7 46 0
-4 -7 -46 0
5 8 46 0
-5 -8 -46 0
1 9 45 0
-1 -9 -45 0
6 9 46 0
-6 -9 -46 0
2 10 45 0
-2 -10 -45 0
7 10 46 0
-7 -10 -46 0
3 11 45 0
-3 -11 -45 0
8 11 46 0
-8 -11 -46 0
4 12 45 0
-4 -12 -45 0
9 12 46 0
-9 -12 -46 0
5 13 45 0
-5 -13 -45 0
10 13 46 0
-10 -13 -46 0
1 14 44 0
-1 -14 -44 0
6 14 45 0
-6 -14 -45 0
11 14 46 0
-11 -14 -46 0
2 15 44 0
-2 -15 -44 0
7 15 45 0
-7 -15 -45 0
12 15 46 0
-12 -15 -46 0
3 16 44 0
-3 -16 -44 0
8 16 45 0
-8 -16 -45 0
13 16 46 0
-13 -16 -46 0
4 17 44 0
-4 -17 -44 0
9 17 45 0
-9 -17 -45 0
14 17 46 0
-14 -17 -46 0
5 18 44 0
-5 -18 -44 0
10 18 45 0
-10 -18 -45 0
15 18 46 0
-15 -18 -46 0
1 19 43 0
-1 -19 -43 0
6 19 44 0
-6 -19 -44 0
11 19 45 0
-11 -19 -45 0
16 19 46 0
-16 -19 -46 0
2 20 43 0
-2 -20 -43 0
7 20 44 0
-7 -20 -44 0
12 20 45 0
-12 -20 -45 0
17 20 46 0
-17 -20 -46 0
3 21 43 0
-3 -21 -43 0
8 21 44 0
-8 -21 -44 0
13 21 45 0
-13 -21 -45 0
18 21 46 0
-18 -21 -46 0
4 22 43 0
-4 -22 -43 0
9 22 44 0
-9 -22 -44 0
14 22 45 0
-14 -22 -45 0
19 22 46 0
-19 -22 -46 0
5 23 43 0
-5 -23 -43 0
10 23 44 0
-10 -23 -44 0
15 23 45 0
-15 -23 -45 0
20 23 46 0
-20 -23 -46 0
1 24 42 0
-1 -24 -42 0
6 24 43 0
-6 -24 -43 0
11 24 44 0
-11 -24 -44 0
16 24 45 0
-16 -24 -45 0
21 24 46 0
-21 -24 -46 0
2 25 42 0
-2 -25 -42 0
7 25 43 0
-7 -25 -43 0
12 25 44 0
-12 -25 -44 0
17 25 45 0
-17 -25 -45 0
22 25 46 0
-22 -25 -46 0
3 26 42 0
-3 -26 -42 0
8 26 43 0
-8 -26 -43 0
13 26 44 0
-13 -26 -44 0
18 26 45 0
-18 -26 -45 0
23 26 46 0
-23 -26 -46 0
4 27 42 0
-4 -27 -42 0
9 27 43 0
-9 -27 -43 0
14 27 44 0
-14 -27 -44 0
19 27 45 0
-19 -27 -45 0
24 27 46 0
-24 -27 -46 0
5 28 42 0
-5 -28 -42 0
10 28 43 0
-10 -28 -43 0
15 28 44 0
-15 -28 -44 0
20 28 45 0
-20 -28 -45 0
25 28 46 0
-25 -28 -46 0
1 29 41 0
-1 -29 -41 0
6 29 42 0
-6 -29 -42 0
11 29 43 0
-11 -29 -43 0
16 29 44 0
-16 -29 -44 0
21 29 45 0
-21 -29 -45 0
26 29 46 0
-26 -29 -46 0
2 30 41 0
-2 -30 -41 0
7 30 42 0
-7 -30 -42 0
12 30 43 0
-12 -30 -43 0
17 30 44 0
-17 -30 -44 0
22 30 45 0
-22 -30 -45 0
27 30 46 0
-27 -30 -46 0
3 31 41 0
-3 -31 -41 0
8 31 42 0
-8 -31 -42 0
13 31 43 0
-13 -31 -43 0
18 31 44 0
-18 -31 -44 0
23 31 45 0
-23 -31 -45 0
28 31 46 0
-28 -31 -46 0
4 32 41 0
-4 -32 -41 0
9 32 42 0
-9 -32 -42 0
14 32 43 0
-14 -32 -43 0
19 32 44 0
-19 -32 -44 0
24 32 45 0
-24 -32 -45 0
29 32 46 0
-29 -32 -46 0
5 33 41 0
-5 -33 -41 0
10 33 42 0
-10 -33 -42 0
15 33 43 0
-15 -33 -43 0
20 33 44 0
-20 -33 -44 0
25 33 45 0
-25 -33 -45 0
30 33 46 0
-30 -33 -46 0
1 34 40 0
-1 -34 -40 0
6 34 41 0
-6 -34 -41 0
11 34 42 0
-11 -34 -42 0
16 34 43 0
-16 -34 -43 0
21 34 44 0
-21 -34 -44 0
26 34 45 0
-26 -34 -45 0
31 34 46 0
-31 -34 -46 0
2 35 40 0
-2 -35 -40 0
7 35 41 0
-7 -35 -41 0
12 35 42 0
-12 -35 -42 0
17 35 43 0
-17 -35 -43 0
22 35 44 0
-22 -35 -44 0
27 35 45 0
-27 -35 -45 0
32 35 46 0
-32 -35 -46 0
3 36 40 0
-3 -36 -40 0
8 36 41 0
-8 -36 -41 0
13 36 42 0
-13 -36 -42 0
18 36 43 0
-18 -36 -43 0
23 36 44 0
-23 -36 -44 0
28 36 45 0
-28 -36 -45 0
33 36 46 0
-33 -36 -46 0
4 37 40 0
-4 -37 -40 0
9 37 41 0
-9 -37 -41 0
14 37 42 0
-14 -37 -42 0
19 37 43 0
-19 -37 -43 0
24 37 44 0
-24 -37 -44 0
29 37 45 0
-29 -37 -45 0
34 37 46 0
-34 -37 -46 0
5 38 40 0
-5 -38 -40 0
10 38 41 0
-10 -38 -41 0
15 38 42 0
-15 -38 -42 0
20 38 43 0
-20 -38 -43 0
25 38 44 0
-25 -38 -44 0
30 38 45 0
-30 -38 -45 0
35 38 46 0
-35 -38 -46 0
1 39 0
-1 -39 0
6 39 40 0
-6 -39 -40 0
11 39 41 0
-11 -39 -41 0
16 39 42 0
-16 -39 -42 0
21 39 43 0
-21 -39 -43 0
26 39 44 0
-26 -39 -44 0
31 39 45 0
-31 -39 -45 0
36 39 46 0
-36 -39 -46 0
2 39 40 0
-2 -39 -40 0
7 40 0
-7 -40 0
12 40 41 0
-12 -40 -41 0
17 40 42 0
-17 -40 -42 0
22 40 43 0
-22 -40 -43 0
27 40 44 0
-27 -40 -44 0
32 40 45 0
-32 -40 -45 0
37 40 46 0
-37 -40 -46 0
3 39 41 0
-3 -39 -41 0
8 40 41 0
-8 -40 -41 0
13 41 0
-13 -41 0
18 41 42 0
-18 -41 -42 0
23 41 43 0
-23 -41 -43 0
28 41 44 0
-28 -41 -44 0
33 41 45 0
-33 -41 -45 0
38 41 46 0
-38 -41 -46 0
4 39 42 0
-4 -39 -42 0
9 40 42 0
-9 -40 -42 0
14 41 42 0
-14 -41 -42 0
19 42 0
-19 -42 0
24 42 43 0
-24 -42 -43 0
29 42 44 0
-29 -42 -44 0
34 42 45 0
-34 -42 -45 0
39 42 46 0
-39 -42 -46 0
5 39 43 0
-5 -39 -43 0
10 40 43 0
-10 -40 -43 0
15 41 43 0
-15 -41 -43 0
20 42 43 0
-20 -42 -43 0
25 43 0
-25 -43 0
30 43 44 0
-30 -43 -44 0
35 43 45 0
-35 -43 -45 0
40 43 46 0
-40 -43 -46 0
1 38 44 0
-1 -38 -44 0
6 39 44 0
-6 -39 -44 0
11 40 44 0
-11 -40 -44 0
16 41 44 0
-16 -41 -44 0
21 42 44 0
-21 -42 -44 0
26 43 44 0
-26 -43 -44 0
31 44 0
-31 -44 0
36 44 45 0
-36 -44 -45 0
41 44 46 0
-41 -44 -46 0
2 38 45 0
-2 -38 -45 0
7 39 45 0
-7 -39 -45 0
12 40 45 0
-12 -40 -45 0
17 41 45 0
-17 -41 -45 0
22 42 45 0
-22 -42 -45 0
27 43 45 0
-27 -43 -45 0
32 44 45 0
-32 -44 -45 0
37 45 0
-37 -45 0
42 45 46 0
-42 -45 -46 0
3 38 46 0
-3 -38 -46 0
8 39 46 0
-8 -39 -46 0
13 40 46 0
-13 -40 -46 0
18 41 46 0
-18 -41 -46 0
23 42 46 0
-23 -42 -46 0
28 43 46 0
-28 -43 -46 0
33 44 46 0
-33 -44 -46 0
38 45 46 0
-38 -45 -46 0
43 46 0
-43 -46 0
