certificates/rado_a5_c233_N46.drat
-46 0
43 0
-25 0
22 0
28 0
-4 0
-40 0
-10 0
1 0
7 0
37 0
13 0
-39 0
-19 0
-45 0
-31 0
-41 0
36 0
42 0
8 0
6 0
2 0
11 0
16 0
27 0
38 0
0
